CANDIDATES = 5;
AGENTS = 9;
rankings = array2d(CANDIDATES, AGENTS,[0, 0, 0, 4, 4, 4, 4, 4, 4, 1, 1, 1, 3, 3, 3, 3, 3, 3, 2, 2, 2, 2, 2, 2, 2, 2, 2, 3, 3, 3, 1, 1, 1, 1, 1, 1, 4, 4, 4, 0, 0, 0, 0, 0, 0]);
copeland = [0, 1, 2, 3, 4];
